30
0   202   205
1   207   207
2   207   201
3   103   101
4   104   107
5   104   104
6   56   54
7   57   52
8   51   54
9   26   32
10   29   29
11   30   32
12   19   13
13   18   16
14   15   18
15   13   8
16   11   7
17   9   7
18   4   4
19   9   8
20   4   7
21   6   2
22   4   6
23   1   5
24   2   7
25   4   4
26   5   2
27   3   2
28   6   2
29   7   4
400
